clingo version 5.5.2
Reading from ...nt/beegfs/home/jubruns/encoding/mif.lp ...
Solving...
Answer: 1
move(1,(9,10),(9,9),1) move(1,(9,9),(8,9),2) move(1,(8,9),(7,9),3) move(1,(7,9),(6,9),4) move(1,(6,9),(5,9),5) move(1,(5,9),(4,9),6) move(1,(4,9),(3,9),7) move(1,(3,9),(4,9),9) move(2,(7,8),(7,7),2) move(2,(7,7),(7,8),4) move(2,(7,8),(7,9),5) move(2,(7,9),(6,9),6) move(2,(6,9),(5,9),7) move(3,(8,9),(7,9),1) move(3,(7,9),(7,8),2) move(3,(7,8),(7,9),4) move(3,(7,9),(8,9),5) move(3,(8,9),(9,9),6) move(3,(9,9),(9,10),7) move(3,(9,10),(9,11),8) move(4,(5,1),(6,1),1) move(4,(6,1),(7,1),2) move(4,(7,1),(8,1),3) move(4,(8,1),(9,1),4) move(5,(4,1),(5,1),1) move(5,(5,1),(6,1),2) move(5,(6,1),(7,1),3) move(5,(7,1),(7,2),4) move(5,(7,2),(7,3),5) move(5,(7,3),(7,4),6) move(5,(7,4),(7,5),7) move(5,(7,5),(6,5),8) move(5,(6,5),(5,5),9) move(5,(5,5),(5,6),10) move(5,(5,6),(5,7),11) move(5,(5,7),(4,7),12) move(5,(4,7),(3,7),13) move(5,(3,7),(3,8),14) move(5,(3,8),(3,9),15)
SATISFIABLE

Models       : 1+
Calls        : 1
Time         : 0.138s (Solving: 0.00s 1st Model: 0.00s Unsat: 0.00s)
CPU Time     : 0.110s

Choices      : 66       (Domain: 17)
Conflicts    : 8        (Analyzed: 8)
Restarts     : 0       
Model-Level  : 50.0    
Problems     : 1        (Average Length: 0.00 Splits: 0)
Lemmas       : 8        (Deleted: 0)
  Binary     : 3        (Ratio:  37.50%)
  Ternary    : 0        (Ratio:   0.00%)
  Conflict   : 8        (Average Length:    4.1 Ratio: 100.00%) 
  Loop       : 0        (Average Length:    0.0 Ratio:   0.00%) 
  Other      : 0        (Average Length:    0.0 Ratio:   0.00%) 
Backjumps    : 8        (Average:  2.00 Max:   4 Sum:     16)
  Executed   : 8        (Average:  2.00 Max:   4 Sum:     16 Ratio: 100.00%)
  Bounded    : 0        (Average:  0.00 Max:   0 Sum:      0 Ratio:   0.00%)

Rules        : 53595    (Original: 22151)
  Choice     : 75      
  Heuristic  : 932      (Original: 1259)
Atoms        : 26222    (Original: 11419 Auxiliary: 14803)
Disjunctions : 0        (Original: 1)
Bodies       : 27773    (Original: 12442)
  Count      : 6        (Original: 455)
Equivalences : 26624    (Atom=Atom: 147 Body=Body: 192 Other: 26285)
Tight        : Yes
Variables    : 26127    (Eliminated:    0 Frozen:    0)
Constraints  : 61072    (Binary:  82.8% Ternary:  13.8% Other:   3.4%)

